n = 16;
garden = array2d(1..n,1..n,
[
% 6  2  2  3  1  5  2  4  1  6  1  5  2  4  2  5
  0, L, 0, 0, 0, 0, L, 0, 0, 0, 0, 0, 0, 0, L, 0, % 7
  0, 0, 0, 0, 0, 0, 0, L, 0, L, 0, L, 0, L, L, 0, % 0
  0, 0, L, 0, 0, L, 0, L, 0, 0, 0, 0, L, 0, 0, 0, % 4
  0, L, 0, 0, 0, 0, 0, 0, 0, L, 0, 0, 0, 0, 0, 0, % 3
  0, 0, 0, L, 0, 0, 0, 0, 0, L, 0, 0, 0, 0, L, 0, % 2
  L, 0, 0, 0, 0, 0, L, 0, L, 0, 0, 0, L, 0, 0, 0, % 5
  0, 0, 0, 0, 0, 0, 0, 0, 0, 0, 0, 0, 0, L, 0, 0, % 1
  L, 0, 0, 0, 0, 0, 0, 0, 0, 0, L, 0, 0, 0, L, 0, % 3
  0, 0, 0, L, 0, 0, 0, 0, L, 0, 0, 0, 0, 0, 0, 0, % 4
  L, 0, 0, L, 0, 0, L, 0, 0, 0, 0, 0, 0, 0, 0, 0, % 2 
  L, 0, 0, 0, 0, 0, 0, 0, 0, L, 0, 0, 0, L, 0, 0, % 4
  L, 0, 0, 0, 0, L, L, 0, 0, 0, 0, L, 0, 0, 0, L, % 1
  0, 0, 0, 0, 0, 0, 0, 0, 0, L, 0, L, 0, 0, 0, L, % 5
  0, 0, 0, L, 0, 0, 0, L, 0, 0, 0, 0, 0, 0, 0, 0, % 2
  L, 0, 0, 0, 0, 0, L, 0, 0, L, 0, 0, 0, 0, 0, L, % 3
  0, 0, 0, L, 0, L, 0, 0, 0, 0, L, 0, L, 0, 0, 0, % 5
]);

rows = [7,0,4,3,2,5,1,3,4,2,4,1,5,2,3,5];
cols = [6,2,2,3,1,5,2,4,1,6,1,5,2,4,2,5];